c File: data_files/evolved_graphs/g0475.col
c
c Auto generated graph
c
p edge 100 1114
e 1 7
e 1 34
e 1 35
e 1 37
e 1 38
e 1 40
e 1 41
e 1 42
e 1 43
e 1 46
e 1 48
e 1 49
e 1 50
e 1 52
e 1 53
e 1 54
e 1 55
e 1 58
e 1 59
e 1 60
e 1 61
e 1 62
e 1 63
e 1 64
e 1 65
e 1 66
e 1 67
e 1 68
e 1 69
e 1 70
e 1 71
e 1 72
e 1 73
e 1 74
e 1 75
e 1 76
e 1 77
e 1 78
e 1 79
e 1 80
e 1 81
e 1 82
e 1 83
e 1 84
e 1 85
e 1 86
e 1 87
e 1 88
e 1 89
e 1 90
e 1 91
e 1 92
e 1 93
e 1 94
e 1 95
e 1 96
e 1 97
e 1 98
e 1 100
e 2 9
e 2 16
e 2 18
e 2 34
e 2 36
e 2 40
e 2 49
e 2 50
e 2 52
e 2 55
e 2 58
e 2 59
e 2 60
e 2 61
e 2 62
e 2 63
e 2 64
e 2 65
e 2 66
e 2 67
e 2 68
e 2 69
e 2 70
e 2 71
e 2 72
e 2 73
e 2 74
e 2 75
e 2 76
e 2 77
e 2 78
e 2 79
e 2 80
e 2 81
e 2 82
e 2 83
e 2 84
e 2 85
e 2 86
e 2 87
e 2 88
e 2 89
e 2 90
e 2 91
e 2 92
e 2 93
e 2 94
e 2 95
e 2 96
e 2 97
e 2 98
e 3 25
e 3 30
e 3 34
e 3 35
e 3 40
e 3 43
e 3 44
e 3 47
e 3 52
e 3 58
e 3 59
e 3 60
e 3 61
e 3 62
e 3 63
e 3 64
e 3 65
e 3 66
e 3 67
e 3 68
e 3 69
e 3 70
e 3 71
e 3 72
e 3 73
e 3 74
e 3 75
e 3 76
e 3 77
e 3 78
e 3 79
e 3 80
e 3 81
e 3 82
e 3 83
e 3 84
e 3 85
e 3 86
e 3 87
e 3 88
e 3 89
e 3 90
e 3 91
e 3 92
e 3 93
e 3 94
e 3 95
e 3 96
e 3 97
e 3 98
e 4 16
e 4 17
e 4 18
e 4 19
e 4 22
e 4 24
e 4 26
e 4 27
e 4 30
e 4 35
e 4 37
e 4 39
e 4 40
e 4 42
e 4 43
e 4 44
e 4 45
e 4 46
e 4 48
e 4 49
e 4 51
e 4 55
e 4 57
e 4 58
e 4 59
e 4 60
e 4 61
e 4 62
e 4 63
e 4 64
e 4 65
e 4 66
e 4 67
e 4 69
e 4 70
e 4 72
e 4 73
e 4 74
e 4 75
e 4 76
e 4 77
e 4 78
e 4 79
e 4 80
e 4 81
e 4 82
e 4 83
e 4 84
e 4 85
e 4 86
e 4 87
e 4 88
e 4 89
e 4 90
e 4 91
e 4 92
e 4 93
e 4 94
e 4 95
e 4 96
e 4 97
e 4 98
e 4 100
e 5 14
e 5 16
e 5 18
e 5 19
e 5 20
e 5 21
e 5 28
e 5 32
e 5 37
e 5 40
e 5 43
e 5 47
e 5 49
e 5 51
e 5 52
e 5 53
e 5 55
e 5 56
e 5 58
e 5 59
e 5 60
e 5 61
e 5 62
e 5 63
e 5 64
e 5 65
e 5 66
e 5 67
e 5 68
e 5 69
e 5 70
e 5 71
e 5 72
e 5 73
e 5 74
e 5 75
e 5 76
e 5 77
e 5 78
e 5 79
e 5 80
e 5 81
e 5 82
e 5 83
e 5 84
e 5 85
e 5 86
e 5 87
e 5 88
e 5 89
e 5 90
e 5 91
e 5 92
e 5 93
e 5 94
e 5 95
e 5 96
e 5 97
e 5 98
e 6 16
e 6 17
e 6 18
e 6 19
e 6 24
e 6 35
e 6 37
e 6 39
e 6 42
e 6 43
e 6 45
e 6 46
e 6 49
e 6 53
e 6 55
e 6 58
e 6 59
e 6 60
e 6 61
e 6 62
e 6 63
e 6 64
e 6 65
e 6 66
e 6 67
e 6 68
e 6 69
e 6 70
e 6 71
e 6 72
e 6 73
e 6 74
e 6 75
e 6 76
e 6 77
e 6 78
e 6 79
e 6 80
e 6 81
e 6 82
e 6 83
e 6 84
e 6 85
e 6 86
e 6 87
e 6 88
e 6 89
e 6 90
e 6 91
e 6 92
e 6 93
e 6 94
e 6 95
e 6 96
e 6 97
e 6 98
e 6 100
e 7 19
e 7 21
e 7 22
e 7 24
e 7 25
e 7 27
e 7 29
e 7 31
e 7 34
e 7 35
e 7 36
e 7 38
e 7 41
e 7 43
e 7 44
e 7 47
e 7 49
e 7 51
e 7 52
e 7 53
e 7 56
e 7 57
e 7 58
e 7 59
e 7 60
e 7 61
e 7 62
e 7 63
e 7 64
e 7 65
e 7 66
e 7 67
e 7 68
e 7 69
e 7 70
e 7 71
e 7 72
e 7 73
e 7 74
e 7 75
e 7 76
e 7 77
e 7 78
e 7 79
e 7 80
e 7 81
e 7 82
e 7 83
e 7 84
e 7 85
e 7 86
e 7 87
e 7 88
e 7 89
e 7 90
e 7 91
e 7 92
e 7 93
e 7 94
e 7 95
e 7 96
e 7 97
e 7 98
e 7 99
e 8 13
e 8 17
e 8 22
e 8 24
e 8 27
e 8 28
e 8 29
e 8 32
e 8 33
e 8 36
e 8 37
e 8 40
e 8 44
e 8 47
e 8 50
e 8 51
e 8 53
e 8 54
e 8 58
e 8 59
e 8 60
e 8 61
e 8 62
e 8 63
e 8 64
e 8 65
e 8 66
e 8 67
e 8 68
e 8 69
e 8 70
e 8 71
e 8 72
e 8 73
e 8 74
e 8 75
e 8 76
e 8 77
e 8 78
e 8 79
e 8 80
e 8 81
e 8 82
e 8 83
e 8 84
e 8 85
e 8 86
e 8 87
e 8 88
e 8 89
e 8 90
e 8 91
e 8 92
e 8 93
e 8 94
e 8 95
e 8 96
e 8 97
e 8 98
e 8 99
e 9 10
e 9 17
e 9 21
e 9 22
e 9 23
e 9 29
e 9 30
e 9 31
e 9 33
e 9 34
e 9 39
e 9 41
e 9 46
e 9 47
e 9 49
e 9 50
e 9 56
e 9 58
e 9 59
e 9 60
e 9 61
e 9 62
e 9 63
e 9 64
e 9 65
e 9 66
e 9 67
e 9 68
e 9 69
e 9 70
e 9 71
e 9 72
e 9 73
e 9 74
e 9 75
e 9 76
e 9 77
e 9 78
e 9 79
e 9 80
e 9 81
e 9 82
e 9 83
e 9 84
e 9 85
e 9 86
e 9 87
e 9 88
e 9 89
e 9 90
e 9 91
e 9 92
e 9 93
e 9 94
e 9 95
e 9 96
e 9 97
e 9 98
e 9 99
e 10 16
e 10 18
e 10 19
e 10 21
e 10 24
e 10 25
e 10 27
e 10 29
e 10 30
e 10 33
e 10 35
e 10 36
e 10 37
e 10 40
e 10 41
e 10 42
e 10 43
e 10 45
e 10 47
e 10 49
e 10 51
e 10 52
e 10 53
e 10 54
e 10 55
e 10 56
e 10 57
e 10 58
e 10 59
e 10 60
e 10 61
e 10 62
e 10 63
e 10 64
e 10 65
e 10 66
e 10 67
e 10 68
e 10 69
e 10 70
e 10 71
e 10 72
e 10 73
e 10 74
e 10 75
e 10 76
e 10 77
e 10 78
e 10 79
e 10 80
e 10 81
e 10 82
e 10 83
e 10 84
e 10 85
e 10 86
e 10 87
e 10 88
e 10 89
e 10 90
e 10 91
e 10 92
e 10 93
e 10 94
e 10 95
e 10 96
e 10 97
e 10 98
e 10 99
e 11 14
e 11 16
e 11 18
e 11 21
e 11 22
e 11 23
e 11 28
e 11 29
e 11 30
e 11 31
e 11 32
e 11 33
e 11 34
e 11 35
e 11 37
e 11 40
e 11 42
e 11 43
e 11 44
e 11 47
e 11 48
e 11 49
e 11 50
e 11 51
e 11 52
e 11 53
e 11 55
e 11 56
e 11 58
e 11 59
e 11 60
e 11 61
e 11 62
e 11 63
e 11 64
e 11 65
e 11 66
e 11 67
e 11 68
e 11 69
e 11 70
e 11 71
e 11 72
e 11 73
e 11 74
e 11 75
e 11 76
e 11 77
e 11 78
e 11 79
e 11 80
e 11 81
e 11 82
e 11 83
e 11 84
e 11 85
e 11 86
e 11 87
e 11 88
e 11 89
e 11 90
e 11 91
e 11 92
e 11 93
e 11 94
e 11 95
e 11 97
e 11 98
e 11 99
e 12 19
e 12 20
e 12 22
e 12 23
e 12 25
e 12 28
e 12 31
e 12 32
e 12 33
e 12 34
e 12 37
e 12 39
e 12 41
e 12 42
e 12 43
e 12 44
e 12 50
e 12 51
e 12 54
e 12 57
e 12 58
e 12 59
e 12 60
e 12 61
e 12 62
e 12 63
e 12 64
e 12 65
e 12 66
e 12 67
e 12 68
e 12 69
e 12 70
e 12 71
e 12 72
e 12 73
e 12 74
e 12 75
e 12 76
e 12 77
e 12 96
e 12 97
e 12 98
e 12 100
e 13 21
e 13 23
e 13 25
e 13 26
e 13 27
e 13 28
e 13 30
e 13 31
e 13 33
e 13 35
e 13 36
e 13 40
e 13 42
e 13 45
e 13 46
e 13 47
e 13 52
e 13 56
e 13 57
e 13 58
e 13 59
e 13 60
e 13 61
e 13 62
e 13 63
e 13 64
e 13 65
e 13 66
e 13 67
e 13 68
e 13 69
e 13 70
e 13 71
e 13 72
e 13 73
e 13 74
e 13 75
e 13 76
e 13 77
e 13 96
e 13 97
e 13 98
e 13 100
e 14 20
e 14 24
e 14 25
e 14 27
e 14 30
e 14 36
e 14 41
e 14 45
e 14 48
e 14 52
e 14 53
e 14 55
e 14 57
e 14 58
e 14 59
e 14 60
e 14 61
e 14 62
e 14 63
e 14 64
e 14 65
e 14 66
e 14 67
e 14 68
e 14 69
e 14 70
e 14 71
e 14 72
e 14 73
e 14 74
e 14 75
e 14 76
e 14 77
e 14 96
e 14 97
e 14 98
e 14 99
e 15 17
e 15 23
e 15 28
e 15 29
e 15 30
e 15 32
e 15 33
e 15 36
e 15 38
e 15 39
e 15 41
e 15 42
e 15 43
e 15 45
e 15 47
e 15 48
e 15 50
e 15 51
e 15 54
e 15 55
e 15 58
e 15 59
e 15 60
e 15 61
e 15 62
e 15 63
e 15 64
e 15 65
e 15 66
e 15 67
e 15 68
e 15 69
e 15 70
e 15 71
e 15 72
e 15 73
e 15 74
e 15 75
e 15 76
e 15 77
e 15 96
e 15 97
e 15 98
e 16 58
e 16 59
e 16 60
e 16 61
e 16 62
e 16 63
e 16 64
e 16 65
e 16 66
e 16 67
e 16 68
e 16 69
e 16 70
e 16 71
e 16 72
e 16 73
e 16 74
e 16 75
e 16 76
e 16 77
e 16 86
e 16 96
e 16 97
e 16 98
e 17 56
e 17 58
e 17 59
e 17 60
e 17 61
e 17 62
e 17 63
e 17 64
e 17 65
e 17 66
e 17 96
e 17 97
e 17 98
e 17 99
e 18 34
e 18 58
e 18 59
e 18 60
e 18 61
e 18 62
e 18 63
e 18 64
e 18 65
e 18 66
e 18 96
e 18 97
e 18 98
e 19 21
e 19 39
e 19 48
e 19 58
e 19 59
e 19 60
e 19 61
e 19 62
e 19 63
e 19 64
e 19 65
e 19 66
e 19 96
e 19 97
e 19 98
e 20 58
e 20 59
e 20 60
e 20 61
e 20 62
e 20 63
e 20 64
e 20 65
e 20 66
e 20 96
e 20 97
e 20 98
e 21 58
e 21 59
e 21 60
e 21 61
e 21 62
e 21 63
e 21 64
e 21 65
e 21 66
e 21 96
e 21 97
e 21 98
e 21 100
e 22 56
e 22 58
e 22 59
e 22 60
e 22 61
e 22 62
e 22 63
e 22 64
e 22 65
e 22 66
e 22 89
e 22 96
e 22 97
e 22 98
e 23 36
e 23 58
e 23 59
e 23 60
e 23 61
e 23 62
e 23 63
e 23 64
e 23 65
e 23 66
e 23 96
e 23 97
e 23 98
e 23 99
e 24 58
e 24 59
e 24 60
e 24 61
e 24 62
e 24 63
e 24 64
e 24 65
e 24 66
e 24 67
e 24 69
e 24 100
e 25 100
e 26 36
e 26 50
e 26 51
e 28 31
e 28 33
e 28 36
e 28 99
e 29 32
e 29 57
e 31 35
e 31 44
e 31 53
e 31 99
e 31 100
e 32 99
e 33 41
e 34 40
e 35 41
e 35 100
e 37 41
e 37 99
e 39 45
e 39 53
e 39 100
e 42 99
e 43 100
e 45 47
e 45 100
e 46 49
e 46 99
e 47 57
e 48 100
e 49 100
e 50 100
e 54 64
e 54 66
e 54 68
e 54 70
e 55 64
e 55 66
e 55 69
e 55 71
e 55 74
e 56 61
e 56 63
e 56 64
e 56 72
e 57 60
e 57 61
e 57 63
e 57 69
e 57 73
e 58 63
e 58 64
e 58 67
e 58 92
e 58 95
e 58 98
e 58 99
e 58 100
e 59 72
e 59 79
e 59 94
e 60 69
e 60 75
e 60 78
e 60 94
e 60 98
e 61 76
e 61 88
e 61 99
e 62 83
e 62 94
e 62 100
e 63 91
e 63 92
e 63 93
e 63 94
e 63 96
e 63 99
e 64 73
e 64 91
e 64 97
e 65 70
e 65 71
e 65 100
e 66 67
e 67 75
e 67 95
e 67 98
e 67 99
e 68 95
e 68 98
e 69 97
e 70 90
e 70 94
e 70 95
e 70 97
e 71 78
e 71 81
e 71 92
e 72 94
e 72 98
e 72 99
e 73 92
e 73 94
e 73 100
e 74 92
e 74 94
e 74 97
e 74 98
e 75 78
e 75 92
e 75 93
e 75 94
e 75 100
e 76 93
e 76 94
e 76 100
e 77 92
e 78 83
e 78 93
e 78 95
e 78 97
e 78 100
e 79 82
e 79 92
e 79 93
e 79 97
e 80 92
e 80 93
e 80 95
e 81 95
e 82 92
e 83 93
e 83 95
e 83 97
e 85 98
e 86 95
e 86 96
e 86 97
e 86 100
e 87 93
e 88 100
e 89 95
e 90 92
e 90 93
e 90 95
e 90 98
e 91 92
e 91 99
e 93 94
e 95 97
e 95 100
e 96 99
